db/inputs/12850113401900225153137399210543328665.smt2
(set-logic QF_FP)
(declare-const x0 (_ FloatingPoint 8 24))
(declare-const x1 (_ FloatingPoint 8 24))
(declare-const x2 (_ FloatingPoint 8 24))
(declare-const x3 (_ FloatingPoint 8 24))
(declare-const x4 (_ FloatingPoint 8 24))
(declare-const x5 (_ FloatingPoint 8 24))
(declare-const x6 (_ FloatingPoint 8 24))
(declare-const x7 (_ FloatingPoint 8 24))
(declare-const x8 (_ FloatingPoint 8 24))
(declare-const x9 (_ FloatingPoint 8 24))
(declare-const x10 (_ FloatingPoint 8 24))
(declare-const x11 (_ FloatingPoint 8 24))
(declare-const x12 (_ FloatingPoint 8 24))
(declare-const x13 (_ FloatingPoint 8 24))
(assert (fp.lt (fp.neg (fp.div RNE (fp.add RNE x12 x8) (fp.neg x1))) (fp.mul RNE (fp.div RNE (fp.mul RNE x6 x9) (fp.sub RNE x4 x13)) (fp.neg (fp.mul RNE x11 x8)))))
(assert (fp.lt (fp.sub RNE (fp.sub RNE (fp.sub RNE x3 x6) (fp.sub RNE x10 x8)) (fp.add RNE (fp.div RNE x9 x8) (fp.neg x13))) (fp.sub RNE (fp.div RNE (fp.sub RNE x10 x10) (fp.add RNE x4 x8)) (fp.sub RNE (fp.neg x11) (fp.neg x11)))))
(assert (fp.geq (fp.sub RNE (fp.div RNE (fp.mul RNE x4 x6) (fp.div RNE x10 x13)) (fp.sub RNE (fp.neg x4) (fp.neg x6))) (fp.div RNE (fp.neg (fp.div RNE x13 x1)) (fp.add RNE (fp.add RNE x6 x12) (fp.mul RNE x7 x11)))))
(assert (fp.geq (fp.neg (fp.neg (fp.sub RNE x1 x11))) (fp.neg (fp.add RNE (fp.add RNE x13 x10) (fp.sub RNE x13 x7)))))
(assert (fp.lt (fp.sub RNE (fp.sub RNE (fp.add RNE x10 x7) (fp.mul RNE x10 x0)) (fp.neg (fp.div RNE x9 x8))) (fp.div RNE (fp.sub RNE (fp.div RNE x5 x0) (fp.mul RNE x2 x5)) (fp.sub RNE (fp.add RNE x0 x3) (fp.mul RNE x6 x13)))))
(assert (fp.lt (fp.neg (fp.sub RNE (fp.add RNE x7 x9) (fp.add RNE x2 x13))) (fp.neg (fp.div RNE (fp.add RNE x8 x13) (fp.sub RNE x12 x9)))))
(assert (fp.leq (fp.neg (fp.mul RNE (fp.add RNE x4 x13) (fp.neg x11))) (fp.sub RNE (fp.add RNE (fp.sub RNE x4 x2) (fp.mul RNE x11 x2)) (fp.div RNE (fp.neg x2) (fp.mul RNE x12 x12)))))
(assert (fp.geq (fp.sub RNE (fp.add RNE (fp.sub RNE x2 x11) (fp.neg x6)) (fp.mul RNE (fp.neg x8) (fp.add RNE x12 x1))) (fp.add RNE (fp.add RNE (fp.sub RNE x10 x11) (fp.div RNE x0 x10)) (fp.add RNE (fp.mul RNE x10 x4) (fp.add RNE x9 x3)))))
(assert (fp.eq (fp.mul RNE (fp.div RNE (fp.sub RNE x9 x9) (fp.add RNE x6 x7)) (fp.div RNE (fp.sub RNE x6 x3) (fp.add RNE x9 x0))) (fp.div RNE (fp.add RNE (fp.sub RNE x0 x4) (fp.add RNE x1 x9)) (fp.div RNE (fp.neg x12) (fp.sub RNE x13 x9)))))
(assert (fp.eq (fp.neg (fp.sub RNE (fp.sub RNE x6 x8) (fp.div RNE x8 x7))) (fp.neg (fp.mul RNE (fp.mul RNE x7 x0) (fp.div RNE x0 x13)))))
(assert (fp.lt (fp.div RNE (fp.div RNE (fp.mul RNE x11 x6) (fp.add RNE x12 x6)) (fp.mul RNE (fp.add RNE x7 x8) (fp.sub RNE x11 x2))) (fp.div RNE (fp.mul RNE (fp.add RNE x6 x7) (fp.mul RNE x6 x5)) (fp.neg (fp.neg x4)))))
(assert (fp.geq (fp.mul RNE (fp.sub RNE (fp.add RNE x11 x4) (fp.neg x10)) (fp.sub RNE (fp.div RNE x2 x8) (fp.neg x0))) (fp.div RNE (fp.mul RNE (fp.div RNE x0 x1) (fp.mul RNE x7 x5)) (fp.add RNE (fp.sub RNE x1 x9) (fp.div RNE x7 x2)))))
(assert (fp.gt (fp.mul RNE (fp.sub RNE (fp.mul RNE x11 x8) (fp.sub RNE x10 x8)) (fp.sub RNE (fp.div RNE x0 x1) (fp.sub RNE x6 x3))) (fp.add RNE (fp.neg (fp.sub RNE x4 x5)) (fp.sub RNE (fp.neg x4) (fp.add RNE x0 x11)))))
(check-sat)
