db/data/12850113401900225153137399210543328665.z3.out
-------------------
2500.099398786
